p cnf 26 67
a 8 22 0
e 1 2 3 4 5 6 7 9 10 11 12 13 14 15 16 17 18 19 20 21 23 24 25 26 0
1 3 0
-1 3 0
-2 3 -4 0
2 -3 -4 0
-2 -3 4 0
2 3 4 0
6 -4 0
6 5 0
4 -5 -6 0
1 6 -7 0
-1 -6 -7 0
1 -6 7 0
-1 6 7 0
9 -4 0
9 -4 0
4 -9 0
10 8 0
10 9 0
-8 -9 -10 0
12 11 0
12 -3 0
-11 3 -12 0
13 -10 0
13 -12 0
10 12 -13 0
-14 -7 0
-14 13 0
7 -13 14 0
-15 -8 -16 0
15 8 -16 0
-15 8 16 0
15 -8 16 0
14 16 -17 0
-14 -16 -17 0
14 -16 17 0
-14 16 17 0
-8 -19 -20 0
8 19 -20 0
-8 19 20 0
8 -19 20 0
21 18 0
21 20 0
-18 -20 -21 0
5 8 -22 0
-5 -8 -22 0
5 -8 22 0
-5 8 22 0
-23 -21 0
-23 -22 0
21 22 23 0
2 -22 -24 0
-2 22 -24 0
2 22 24 0
-2 -22 24 0
25 23 0
25 -24 0
-23 24 -25 0
-26 -17 0
-26 25 0
17 -25 26 0
5 -6 7 26 15 11 -17 20 0
-18 -20 -10 23 -25 4 0
6 7 8 -3 25 10 -1 0
-21 -2 -26 -13 16 -18 -17 0
-17 -4 -8 -14 -25 -7 5 0
5 -12 18 0
26 0
